 200 25 
 19 63 20 3 16 7 99 5 29 82 96 63 
 22 34 15 23 83 10 29 62 2 89 22 22 
 63 
 25 
 1 2 3 4 5 6 7 8 9 10 11 12 
 13 14 15 16 17 18 19 20 21 22 23 24 
 25 
 25 
 1 2 3 4 5 6 7 8 9 10 11 12 
 13 14 15 16 17 18 19 20 21 22 23 24 
 25 
 17 
 3 4 5 6 8 9 10 11 13 14 15 16 
 17 18 20 24 25 
 23 
 1 2 3 4 6 7 8 9 10 11 12 13 
 14 15 16 17 18 20 21 22 23 24 25 
 16 
 2 3 4 5 7 8 9 10 11 13 14 18 
 19 20 21 24 
 23 
 2 3 4 5 6 7 8 9 10 11 12 13 
 14 15 16 17 18 19 20 22 23 24 25 
 6 
 2 5 7 13 14 19 
 20 
 1 3 4 5 6 7 8 9 10 12 14 15 
 17 18 19 20 21 22 23 24 
 5 
 10 15 16 18 21 
 18 
 1 3 4 5 6 9 10 11 12 13 14 15 
 18 19 20 21 22 24 
 8 
 6 7 8 10 18 19 20 23 
 20 
 2 3 4 5 6 9 10 11 13 15 16 17 
 18 19 20 21 22 23 24 25 
 13 
 1 2 3 6 8 9 10 12 13 15 18 21 
 25 
 9 
 2 4 6 8 10 11 18 20 23 
 8 
 2 3 10 12 14 20 21 24 
 25 
 1 2 3 4 5 6 7 8 9 10 11 12 
 13 14 15 16 17 18 19 20 21 22 23 24 
 25 
 14 
 1 5 7 8 13 14 15 16 17 18 20 21 
 23 24 
 7 
 1 2 4 11 14 23 24 
 7 
 5 7 9 12 20 21 22 
 19 
 1 2 3 4 6 7 9 10 12 13 15 16 
 17 18 19 21 23 24 25 
 2 
 10 15 
 6 
 10 11 12 15 16 25 
 10 
 2 3 4 5 7 14 18 20 22 25 
 3 
 1 19 20 
 4 
 11 13 15 16 
 2 
 12 23 
 13 
 1 2 3 6 7 8 10 15 16 19 22 23 
 24 
 8 
 1 5 6 7 8 10 19 20 
 2 
 12 23 
 14 
 2 6 8 10 11 13 14 15 16 17 18 19 
 21 23 
 23 
 1 3 4 5 6 7 8 9 10 11 12 13 
 14 15 16 17 18 19 20 21 22 23 24 
 15 
 2 3 4 5 7 10 12 14 16 19 21 22 
 23 24 25 
 10 
 2 3 7 9 10 13 16 21 24 25 
 11 
 4 7 8 10 13 14 15 16 17 20 25 
 2 
 6 21 
 9 
 4 11 14 16 17 20 23 24 25 
 5 
 1 10 16 22 23 
 12 
 1 2 3 8 11 12 13 14 17 20 22 23 
 18 
 1 4 6 7 8 11 12 13 14 15 17 18 
 19 20 21 22 24 25 
 24 
 1 2 3 4 5 6 7 8 9 10 11 12 
 13 14 15 16 17 18 19 20 21 22 23 25 
 13 
 1 2 3 4 6 8 11 14 15 17 21 23 
 25 
 18 
 1 2 3 4 6 7 9 10 11 12 14 15 
 16 17 21 23 24 25 
 6 
 1 4 7 8 13 23 
 20 
 1 2 3 5 6 7 10 11 12 13 14 15 
 16 17 19 20 21 22 24 25 
 3 
 8 19 23 
 20 
 3 4 5 6 7 8 9 10 11 12 13 14 
 15 16 17 19 20 21 22 25 
 17 
 1 2 4 5 6 10 11 12 14 16 18 19 
 20 21 22 23 24 
 9 
 2 3 5 9 10 15 16 20 21 
 5 
 6 10 19 21 23 
 3 
 20 21 23 
 13 
 2 5 7 8 9 11 13 14 17 18 21 22 
 25 
 11 
 2 3 8 12 14 15 18 19 21 22 23 
 10 
 3 7 8 13 15 16 17 19 21 22 
 4 
 6 8 11 20 
 6 
 4 6 7 9 14 18 
 7 
 1 5 10 11 13 14 15 
 20 
 1 2 3 5 6 8 9 10 11 12 13 14 
 15 16 17 19 21 23 24 25 
 4 
 6 11 14 22 
 20 
 1 2 3 4 5 7 8 9 10 11 13 14 
 15 16 19 20 21 22 23 24 
 25 
 1 2 3 4 5 6 7 8 9 10 11 12 
 13 14 15 16 17 18 19 20 21 22 23 24 
 25 
 24 
 1 2 3 4 5 6 7 8 9 10 11 12 
 13 14 15 16 17 18 19 20 21 22 23 24 
 22 
 1 2 3 4 6 7 8 10 11 12 13 14 
 15 16 17 19 20 21 22 23 24 25 
 14 
 1 2 6 7 8 9 10 11 16 18 20 23 
 24 25 
 9 
 1 2 3 6 14 19 20 22 23 
 17 
 3 5 6 8 9 10 11 12 14 15 16 18 
 19 21 23 24 25 
 11 
 3 5 7 8 9 14 19 21 22 23 24 
 22 
 1 2 3 4 5 6 7 8 10 11 12 13 
 14 15 16 19 20 21 22 23 24 25 
 25 
 1 2 3 4 5 6 7 8 9 10 11 12 
 13 14 15 16 17 18 19 20 21 22 23 24 
 25 
 19 
 1 2 3 4 6 9 10 11 12 13 14 15 
 16 18 19 20 21 23 25 
 7 
 4 5 7 9 13 17 25 
 25 
 1 2 3 4 5 6 7 8 9 10 11 12 
 13 14 15 16 17 18 19 20 21 22 23 24 
 25 
 7 
 4 5 7 11 14 19 20 
 18 
 1 2 3 4 7 9 11 13 15 16 17 18 
 19 20 21 22 23 25 
 25 
 1 2 3 4 5 6 7 8 9 10 11 12 
 13 14 15 16 17 18 19 20 21 22 23 24 
 25 
 9 
 1 4 5 7 15 17 21 23 24 
 8 
 4 10 11 15 17 18 19 25 
 22 
 2 3 4 5 6 7 8 9 10 11 12 13 
 14 15 16 17 18 19 20 21 23 24 
 25 
 1 2 3 4 5 6 7 8 9 10 11 12 
 13 14 15 16 17 18 19 20 21 22 23 24 
 25 
 9 
 6 8 10 12 16 19 21 24 25 
 19 
 1 2 5 6 7 8 9 10 12 13 14 16 
 17 18 19 21 22 23 25 
 4 
 8 13 14 16 
 5 
 4 5 6 20 23 
 22 
 1 3 4 5 6 7 8 9 10 12 13 14 
 15 16 18 19 20 21 22 23 24 25 
 12 
 1 5 8 9 10 11 14 18 19 20 21 23 
 25 
 1 2 3 4 5 6 7 8 9 10 11 12 
 13 14 15 16 17 18 19 20 21 22 23 24 
 25 
 19 
 1 2 3 4 7 8 10 11 12 13 14 15 
 16 18 19 22 23 24 25 
 21 
 1 2 3 4 5 6 7 8 9 10 11 12 
 13 14 15 18 19 21 22 23 24 
 2 
 7 12 
 11 
 1 2 4 6 8 12 13 18 19 24 25 
 25 
 1 2 3 4 5 6 7 8 9 10 11 12 
 13 14 15 16 17 18 19 20 21 22 23 24 
 25 
 12 
 2 4 6 8 11 12 14 15 17 20 21 22 
 19 
 2 3 4 5 6 7 10 11 12 13 14 15 
 16 17 19 21 23 24 25 
 24 
 2 3 4 5 6 7 8 9 10 11 12 13 
 14 15 16 17 18 19 20 21 22 23 24 25 
 14 
 2 3 8 9 11 13 14 15 16 17 19 22 
 24 25 
 17 
 1 3 5 7 9 10 11 12 13 14 16 17 
 18 19 23 24 25 
 4 
 3 8 15 17 
 22 
 1 2 3 4 6 7 8 10 11 12 13 14 
 15 16 17 18 19 20 21 22 23 25 
 3 
 4 8 22 
 16 
 1 2 3 4 5 7 8 10 11 12 13 15 
 19 20 22 24 
 11 
 3 4 7 9 12 13 16 19 20 21 24 
 5 
 2 3 10 20 25 
 12 
 1 2 3 4 6 7 8 11 13 15 18 20 
 4 
 9 13 14 25 
 17 
 1 2 6 7 8 9 10 11 12 14 16 17 
 20 21 22 23 25 
 10 
 1 4 8 9 10 11 16 19 21 22 
 14 
 2 3 5 7 8 10 11 13 14 15 20 22 
 24 25 
 10 
 4 5 7 9 10 13 15 16 20 25 
 18 
 1 2 4 5 6 7 9 10 11 12 13 15 
 18 19 21 23 24 25 
 24 
 1 2 3 4 5 6 7 8 9 10 11 12 
 13 14 15 16 17 18 20 21 22 23 24 25 
 5 
 6 8 16 22 25 
 4 
 3 5 16 21 
 20 
 1 3 4 5 6 7 8 10 12 13 15 16 
 17 18 20 21 22 23 24 25 
 22 
 1 2 3 4 5 7 8 9 10 11 12 13 
 14 15 16 17 19 20 21 22 23 25 
 9 
 2 3 6 10 12 15 19 20 23 
 8 
 2 4 5 7 11 18 24 25 
 14 
 1 6 7 9 10 11 13 16 17 18 19 22 
 23 24 
 17 
 2 4 5 6 7 8 9 10 14 15 16 17 
 20 21 22 24 25 
 4 
 3 8 14 19 
 17 
 2 4 5 6 7 9 10 11 12 13 14 15 
 16 19 20 22 24 
 24 
 1 2 3 4 5 6 7 8 9 10 11 12 
 13 14 15 16 17 18 19 20 21 23 24 25 
 8 
 3 11 14 16 17 18 20 23 
 14 
 2 4 5 7 11 13 15 16 17 18 19 20 
 23 25 
 22 
 1 2 3 4 5 8 9 10 11 12 14 15 
 16 17 18 19 20 21 22 23 24 25 
 25 
 1 2 3 4 5 6 7 8 9 10 11 12 
 13 14 15 16 17 18 19 20 21 22 23 24 
 25 
 21 
 1 2 3 4 5 6 7 8 9 12 13 15 
 16 17 18 19 20 21 22 23 24 
 16 
 3 4 6 8 9 10 14 15 16 17 18 19 
 20 21 23 24 
 7 
 4 6 9 10 11 19 20 
 2 
 16 18 
 14 
 1 2 3 5 6 8 11 12 13 14 15 18 
 19 20 
 8 
 6 10 16 17 21 22 23 25 
 12 
 7 10 12 13 14 15 17 18 20 21 22 25 
 19 
 1 2 3 6 7 9 10 11 12 13 15 16 
 17 18 19 20 21 22 23 
 2 
 21 24 
 8 
 1 4 11 13 14 15 16 17 
 5 
 5 6 9 15 19 
 6 
 2 3 11 18 20 24 
 16 
 1 2 3 4 5 6 8 9 12 13 16 17 
 19 23 24 25 
 3 
 2 9 20 
 6 
 8 11 15 17 21 25 
 12 
 3 5 8 13 15 16 18 19 20 21 23 25 
 3 
 5 7 13 
 24 
 1 2 3 4 5 6 7 8 9 10 11 12 
 13 14 15 16 17 18 19 20 21 22 23 24 
 10 
 1 7 9 10 11 13 15 21 23 24 
 9 
 4 5 6 7 17 18 19 21 22 
 7 
 1 12 14 16 19 21 22 
 2 
 16 17 
 17 
 1 2 3 4 7 8 10 11 12 13 14 15 
 16 18 19 21 24 
 9 
 1 9 11 12 14 22 23 24 25 
 4 
 2 11 17 18 
 15 
 1 2 3 7 9 10 11 12 13 15 16 19 
 20 21 23 
 13 
 1 2 4 5 6 8 9 11 14 15 16 21 
 22 
 21 
 1 2 3 4 5 6 9 10 11 12 14 15 
 16 17 18 19 20 21 23 24 25 
 12 
 1 5 6 8 10 13 14 16 17 18 23 24 
 4 
 2 6 16 18 
 9 
 1 7 10 15 18 21 22 24 25 
 22 
 1 3 4 5 7 8 9 10 11 12 13 14 
 15 16 18 19 20 21 22 23 24 25 
 12 
 1 2 3 5 6 9 11 14 18 20 22 25 
 17 
 2 4 5 6 7 8 9 10 11 14 15 16 
 18 19 20 21 23 
 15 
 1 3 4 6 7 8 9 10 11 15 16 17 
 20 21 22 
 24 
 1 2 3 4 5 6 7 8 10 11 12 13 
 14 15 16 17 18 19 20 21 22 23 24 25 
 10 
 2 3 6 7 10 12 20 21 22 24 
 3 
 8 18 25 
 21 
 1 2 3 4 5 6 7 8 9 10 11 13 
 14 15 16 17 18 21 22 23 25 
 16 
 1 2 3 10 11 12 15 16 17 18 19 20 
 21 22 23 25 
 25 
 1 2 3 4 5 6 7 8 9 10 11 12 
 13 14 15 16 17 18 19 20 21 22 23 24 
 25 
 15 
 2 5 6 8 9 14 16 17 18 19 20 21 
 23 24 25 
 23 
 1 2 3 4 5 6 7 8 9 10 11 12 
 13 14 15 16 17 19 21 22 23 24 25 
 11 
 1 6 8 11 17 18 19 20 22 24 25 
 5 
 3 10 16 20 22 
 5 
 5 16 18 19 21 
 7 
 2 4 7 16 17 24 25 
 17 
 1 3 4 6 7 8 10 13 15 16 17 18 
 20 21 22 24 25 
 20 
 2 3 4 5 6 7 8 9 10 12 14 16 
 17 19 20 21 22 23 24 25 
 16 
 2 5 6 7 10 11 13 16 18 19 20 21 
 22 23 24 25 
 18 
 1 2 3 4 6 7 10 11 12 13 14 15 
 18 19 20 21 23 24 
 24 
 1 2 3 4 5 6 7 8 9 10 11 12 
 13 14 15 17 18 19 20 21 22 23 24 25 
 8 
 1 4 9 12 14 17 22 24 
 19 
 1 2 3 6 7 8 9 10 11 12 15 16 
 17 18 20 21 22 23 24 
 24 
 1 2 3 4 5 6 7 8 9 10 11 12 
 13 14 15 16 17 18 19 20 22 23 24 25 
 20 
 1 2 3 4 5 6 8 10 11 13 14 15 
 17 19 20 21 22 23 24 25 
 4 
 13 16 17 22 
 13 
 2 4 5 6 7 9 13 15 16 19 21 22 
 25 
 21 
 1 3 4 5 7 8 9 10 11 12 13 14 
 15 16 17 19 20 22 23 24 25 
 3 
 7 15 17 
 25 
 1 2 3 4 5 6 7 8 9 10 11 12 
 13 14 15 16 17 18 19 20 21 22 23 24 
 25 
 21 
 1 2 3 5 6 7 8 10 11 12 13 14 
 15 16 19 20 21 22 23 24 25 
 9 
 2 6 7 8 9 14 20 22 25 
 2 
 2 4 
 23 
 1 2 3 4 5 6 7 9 10 11 12 13 
 14 15 16 17 18 20 21 22 23 24 25 
 14 
 1 3 4 5 8 9 11 13 14 16 17 18 
 19 24 
 16 
 1 2 3 7 9 10 13 14 15 16 17 19 
 20 21 22 25 
 6 
 4 8 14 19 20 25 
 7 
 1 6 10 12 15 20 23 
 2 
 1 16 
 19 
 1 2 3 4 5 7 10 11 12 13 14 15 
 16 18 19 20 21 24 25 
 20 
 2 4 5 6 7 8 9 10 11 12 13 15 
 16 17 18 20 21 22 24 25 
 24 
 1 2 3 4 5 6 7 8 9 10 11 12 
 13 14 15 16 17 18 19 20 22 23 24 25 
 20 
 1 2 3 4 6 7 8 9 10 11 14 16 
 18 19 20 21 22 23 24 25 
 2 
 10 22 
 24 
 2 3 4 5 6 7 8 9 10 11 12 13 
 14 15 16 17 18 19 20 21 22 23 24 25 
 